10	5
0	3	2	1	3
1	3	9	10	7
2	1	6
3	2	8	9
4	1	11
5	2	4	8
6	1	5
7	1	11
8	1	11
9	1	11
10	1	11
11	0
0	0	0	0	0	0	0
1	5	0	0	0	0	3
2	4	4	4	2	1	2
3	3	0	0	3	0	0
4	9	2	2	2	1	4
5	4	0	0	0	5	0
6	6	0	0	0	4	0
7	7	0	0	0	1	0
8	4	0	5	0	0	2
9	8	1	0	1	5	3
10	1	1	1	4	4	0
11	0	0	0	0	0	0
4	5	5	6	6
